set VV := 0 1 2 3 4 5 6 7 8 9 10 11 12 ;
set VS := 0 1 2 3 4 5 6 7 8 9 10 11 12 13 14 15 16 17 18 19 20 21 22 23 24 25 26 27 28 29 ;
param cv := 
0 23
1 25
2 16
3 19
4 10
5 19
6 25
7 17
8 12
9 14
10 13
11 12
12 24
;
param cs := 
0 38
1 32
2 20
3 21
4 31
5 40
6 35
7 25
8 32
9 31
10 40
11 21
12 37
13 26
14 30
15 32
16 35
17 32
18 29
19 34
20 24
21 31
22 25
23 27
24 35
25 38
26 24
27 24
28 36
29 21
;
param bv:	 0 1 2 3 4 5 6 7 8 9 10 11 12 := 
		0 0 22 0 0 0 0 14 0 0 0 0 0 20 
		1 0 0 0 0 0 0 0 0 0 0 0 0 0 
		2 0 0 0 0 23 0 20 0 0 0 16 0 0 
		3 0 0 0 0 0 17 14 15 17 0 23 0 0 
		4 0 0 0 0 0 24 12 0 0 10 0 0 0 
		5 0 0 0 0 0 0 0 0 0 0 0 0 0 
		6 0 0 0 0 0 0 0 0 0 0 0 0 0 
		7 0 0 0 0 0 0 0 0 10 0 12 13 0 
		8 0 0 0 0 0 0 0 0 0 0 0 0 0 
		9 0 0 0 0 0 0 0 0 0 0 0 0 0 
		10 0 0 0 0 0 0 0 0 0 0 0 0 0 
		11 0 0 0 0 0 0 0 0 0 0 0 0 0 
		12 0 0 0 0 0 0 0 0 0 0 0 0 0 
;
param bs:	 0 1 2 3 4 5 6 7 8 9 10 11 12 13 14 15 16 17 18 19 20 21 22 23 24 25 26 27 28 29 := 
		0 0 0 0 37 0 0 0 0 0 0 0 26 0 0 0 0 0 0 0 26 0 0 0 0 22 0 0 0 0 0 
		1 0 0 0 33 0 38 38 0 25 0 0 0 22 0 0 0 0 0 0 0 0 0 0 0 0 32 20 30 0 0 
		2 0 0 0 0 0 0 0 26 0 0 0 0 0 0 39 0 0 0 0 0 0 0 0 0 0 0 0 0 0 0 
		3 37 33 0 0 0 0 0 0 0 0 0 0 0 0 0 0 0 0 0 0 0 0 0 0 0 0 0 0 0 0 
		4 0 0 0 0 0 0 0 0 0 0 0 0 0 0 0 0 0 0 0 0 0 33 0 0 0 0 0 0 0 0 
		5 0 38 0 0 0 0 0 0 0 0 0 0 27 0 0 0 0 0 0 0 29 0 31 0 0 0 0 0 0 0 
		6 0 38 0 0 0 0 0 0 0 0 0 0 0 21 0 0 0 0 0 0 0 0 0 0 0 0 0 0 0 0 
		7 0 0 26 0 0 0 0 0 0 0 0 0 0 0 0 0 0 0 0 0 29 0 0 0 0 0 0 0 0 0 
		8 0 25 0 0 0 0 0 0 0 0 0 0 0 0 0 0 0 0 23 0 0 0 0 0 0 0 0 0 0 22 
		9 0 0 0 0 0 0 0 0 0 0 0 0 0 0 0 0 0 0 0 0 36 0 0 0 37 0 0 0 0 0 
		10 0 0 0 0 0 0 0 0 0 0 0 27 0 0 0 0 0 0 0 0 0 0 0 0 0 0 26 0 0 0 
		11 26 0 0 0 0 0 0 0 0 0 27 0 0 0 0 0 0 0 0 0 0 0 0 36 0 0 0 0 0 22 
		12 0 22 0 0 0 27 0 0 0 0 0 0 0 0 0 0 0 0 0 0 0 0 0 0 0 0 0 0 0 0 
		13 0 0 0 0 0 0 21 0 0 0 0 0 0 0 0 0 0 0 0 0 0 0 32 20 0 0 0 0 0 0 
		14 0 0 39 0 0 0 0 0 0 0 0 0 0 0 0 0 0 34 0 0 0 0 21 0 24 0 0 0 21 37 
		15 0 0 0 0 0 0 0 0 0 0 0 0 0 0 0 0 0 0 20 26 0 26 0 0 0 36 0 35 0 0 
		16 0 0 0 0 0 0 0 0 0 0 0 0 0 0 0 0 0 0 26 0 0 0 0 0 0 0 0 0 0 0 
		17 0 0 0 0 0 0 0 0 0 0 0 0 0 0 34 0 0 0 0 0 38 0 0 0 0 0 0 0 0 0 
		18 0 0 0 0 0 0 0 0 23 0 0 0 0 0 0 20 26 0 0 0 0 0 0 0 28 0 0 0 0 0 
		19 26 0 0 0 0 0 0 0 0 0 0 0 0 0 0 26 0 0 0 0 0 0 25 0 0 0 0 0 29 28 
		20 0 0 0 0 0 29 0 29 0 36 0 0 0 0 0 0 0 38 0 0 0 0 0 0 0 0 0 0 0 0 
		21 0 0 0 0 33 0 0 0 0 0 0 0 0 0 0 26 0 0 0 0 0 0 0 32 0 0 0 0 0 0 
		22 0 0 0 0 0 31 0 0 0 0 0 0 0 32 21 0 0 0 0 25 0 0 0 0 0 0 0 0 0 21 
		23 0 0 0 0 0 0 0 0 0 0 0 36 0 20 0 0 0 0 0 0 0 32 0 0 39 0 27 33 0 0 
		24 22 0 0 0 0 0 0 0 0 37 0 0 0 0 24 0 0 0 28 0 0 0 0 39 0 0 0 0 0 0 
		25 0 32 0 0 0 0 0 0 0 0 0 0 0 0 0 36 0 0 0 0 0 0 0 0 0 0 0 0 0 28 
		26 0 20 0 0 0 0 0 0 0 0 26 0 0 0 0 0 0 0 0 0 0 0 0 27 0 0 0 0 0 0 
		27 0 30 0 0 0 0 0 0 0 0 0 0 0 0 0 35 0 0 0 0 0 0 0 33 0 0 0 0 0 21 
		28 0 0 0 0 0 0 0 0 0 0 0 0 0 0 21 0 0 0 0 29 0 0 0 0 0 0 0 0 0 0 
		29 0 0 0 0 0 0 0 0 22 0 0 22 0 0 37 0 0 0 0 28 0 0 21 0 0 28 0 21 0 0 
;
